40
raw_data/rcpsp/DC2-npv75.xlsx rcpspdc400
Time limit set to 60 seconds
Running CP solver
/home/omastto1/General-Optimization-Solver/src/solvers/rcpsp.py:31(stream:95:6): Warning: Cumulative expression 'pulse': height is zero, expression is zero everywhere.
                                                                                            VarCumulAtom_238 = pulse("0", 0)
/home/omastto1/General-Optimization-Solver/src/solvers/rcpsp.py:31(stream:95:1212): Warning: Cumulative expression 'pulse': height is zero, expression is zero everywhere.
                                                                                               VarCumulAtom_314 = pulse("76", 0)
/home/omastto1/General-Optimization-Solver/src/solvers/rcpsp.py:31(stream:96:6): Warning: Cumulative expression 'pulse': height is zero, expression is zero everywhere.
                                                                                            VarCumulAtom_318 = pulse("0", 0)
/home/omastto1/General-Optimization-Solver/src/solvers/rcpsp.py:31(stream:96:1212): Warning: Cumulative expression 'pulse': height is zero, expression is zero everywhere.
                                                                                               VarCumulAtom_394 = pulse("76", 0)
/home/omastto1/General-Optimization-Solver/src/solvers/rcpsp.py:31(stream:97:6): Warning: Cumulative expression 'pulse': height is zero, expression is zero everywhere.
                                                                                            VarCumulAtom_398 = pulse("0", 0)
/home/omastto1/General-Optimization-Solver/src/solvers/rcpsp.py:31(stream:97:1212): Warning: Cumulative expression 'pulse': height is zero, expression is zero everywhere.
                                                                                               VarCumulAtom_474 = pulse("76", 0)
/home/omastto1/General-Optimization-Solver/src/solvers/rcpsp.py:31(stream:98:6): Warning: Cumulative expression 'pulse': height is zero, expression is zero everywhere.
                                                                                            VarCumulAtom_478 = pulse("0", 0)
/home/omastto1/General-Optimization-Solver/src/solvers/rcpsp.py:31(stream:98:1212): Warning: Cumulative expression 'pulse': height is zero, expression is zero everywhere.
                                                                                               VarCumulAtom_554 = pulse("76", 0)
 ! --------------------------------------------------- CP Optimizer 20.1.0.0 --
 ! Minimization problem - 78 variables, 446 constraints
 ! TimeLimit            = 60
 ! Workers              = 14
 ! LogVerbosity         = Terse
 ! Initial process time : 0.00s (0.00s extraction + 0.00s propagation)
 !  . Log search space  : 502.5 (before), 502.5 (after)
 !  . Memory usage      : 834.2 kB (before), 834.2 kB (after)
 ! Using parallel search with 14 workers.
 ! ----------------------------------------------------------------------------
 !          Best Branches  Non-fixed    W       Branch decision
                        0         78                 -
 + New bound is 32
 ! Using iterative diving.
 ! Using temporal relaxation.
 *           128      157  1.09s        1      (gap is 75.00%)
 *           126      313  1.09s        1      (gap is 74.60%)
 *           124      469  1.09s        1      (gap is 74.19%)
 *           117     1391  1.09s        1      (gap is 72.65%)
 *           113     1469  1.09s        1      (gap is 71.68%)
 *           112     3113  1.09s        1      (gap is 71.43%)
             112     4398          5    9            -
 + New bound is 98 (gap is 12.50%)
 ! Using failure-directed search.
 *           111    11117  2.21s        4      (gap is 11.71%)
 *           110    19326  4.40s        4      (gap is 10.91%)
 *           109    32366  7.64s       11      (gap is 10.09%)
 *           108    39429  9.89s       11      (gap is 9.26%)
 *           107    71551  14.38s       7      (gap is 8.41%)
 *           106     101k  22.17s       7      (gap is 7.55%)
 ! ----------------------------------------------------------------------------
 ! Search terminated by limit, 12 solutions found.
 ! Best objective         : 106 (gap is 7.55%)
 ! Best bound             : 98
 ! ----------------------------------------------------------------------------
 ! Number of branches     : 4609492
 ! Number of fails        : 988017
 ! Total memory usage     : 13.2 MB (13.1 MB CP Optimizer + 0.1 MB Concert)
 ! Time spent in solve    : 60.03s (60.03s engine + 0.00s extraction)
 ! Search speed (br. / s) : 76799.3
 ! ----------------------------------------------------------------------------
(98,)
(0.0754717,)
(106,)
Objective value: 106
Solution is 8.2 % worse than the lower bound.
Feasible solution found
